\ SCIP STATISTICS
\   Problem name     : SetCover-100-200
\   Variables        : 200 (200 binary, 0 integer, 0 implicit integer, 0 continuous)
\   Constraints      : 100
Minimize
 Obj: +41 x0 +76 x1 +13 x2 +93 x3 +32 x4 +88 x5 +82 x6 +71 x7 +15 x8 +46 x9 +58 x10 +99 x11 +31 x12 +77 x13
      +86 x14 +79 x15 +57 x16 +55 x17 +9 x18 +32 x19 +45 x20 +17 x21 +41 x22 +71 x23 +35 x24 +32 x25 +67 x26
      +32 x27 +10 x28 +27 x29 +1 x30 +78 x31 +17 x32 +63 x33 +10 x34 +77 x35 +6 x36 +98 x37 +85 x38 +31 x39
      +77 x40 +11 x41 +3 x42 +17 x43 +87 x44 +60 x45 +44 x46 +72 x47 +76 x48 +73 x49 +76 x50 +100 x51
      +57 x52 +33 x53 +84 x54 +88 x55 +50 x56 +48 x57 +20 x58 +44 x59 +45 x60 +87 x61 +27 x62 +45 x63
      +68 x64 +51 x65 +74 x66 +100 x67 +84 x68 +95 x69 +56 x70 +57 x71 +11 x72 +67 x73 +13 x74 +100 x75
      +46 x76 +22 x77 +53 x78 +41 x79 +38 x80 +79 x81 +92 x82 +18 x83 +60 x84 +4 x85 +10 x86 +13 x87 +76 x88
      +67 x89 +10 x90 +80 x91 +59 x92 +37 x93 +47 x94 +30 x95 +72 x96 +31 x97 +91 x98 +99 x99 +94 x100
      +35 x101 +54 x102 +1 x103 +62 x104 +70 x105 +8 x106 +87 x107 +57 x108 +48 x109 +4 x110 +19 x111
      +43 x112 +68 x113 +25 x114 +65 x115 +12 x116 +12 x117 +53 x118 +40 x119 +97 x120 +90 x121 +93 x122
      +16 x123 +26 x124 +7 x125 +80 x126 +30 x127 +96 x128 +57 x129 +88 x130 +95 x131 +64 x132 +37 x133
      +54 x134 +33 x135 +12 x136 +43 x137 +56 x138 +97 x139 +22 x140 +56 x141 +10 x142 +44 x143 +6 x144
      +10 x145 +31 x146 +71 x147 +90 x148 +1 x149 +50 x150 +87 x151 +5 x152 +98 x153 +39 x154 +36 x155
      +75 x156 +68 x157 +35 x158 +58 x159 +63 x160 +30 x161 +83 x162 +3 x163 +16 x164 +35 x165 +38 x166
      +6 x167 +80 x168 +50 x169 +12 x170 +31 x171 +73 x172 +16 x173 +93 x174 +47 x175 +87 x176 +32 x177
      +76 x178 +4 x179 +16 x180 +23 x181 +30 x182 +25 x183 +97 x184 +91 x185 +84 x186 +16 x187 +10 x188
      +96 x189 +82 x190 +29 x191 +25 x192 +99 x193 +4 x194 +64 x195 +92 x196 +79 x197 +34 x198 +76 x199
Subject to
 c0: +1 x2 +1 x8 +1 x14 +1 x34 +1 x38 +1 x39 +1 x44 +1 x54 +1 x67 +1 x77 +1 x84 +1 x87 +1 x96 +1 x102
  +1 x109 +1 x112 +1 x117 +1 x118 +1 x142 +1 x147 +1 x150 +1 x165 +1 x175 +1 x177 +1 x179 +1 x191 +1 x198
  >= +1
 c1: +1 x2 +1 x7 +1 x8 +1 x17 +1 x19 +1 x25 +1 x34 +1 x39 +1 x40 +1 x43 +1 x44 +1 x45 +1 x47 +1 x54 +1 x78
  +1 x82 +1 x111 +1 x112 +1 x119 +1 x129 +1 x154 +1 x157 +1 x175 +1 x178 +1 x186 >= +1
 c2: +1 x0 +1 x18 +1 x25 +1 x28 +1 x35 +1 x40 +1 x57 +1 x58 +1 x64 +1 x69 +1 x72 +1 x74 +1 x77 +1 x82
  +1 x85 +1 x88 +1 x98 +1 x114 +1 x116 +1 x118 +1 x123 +1 x124 +1 x127 +1 x131 +1 x132 +1 x136 +1 x137
  +1 x138 +1 x140 +1 x164 +1 x168 +1 x174 +1 x188 +1 x196 +1 x197 >= +1
 c3: +1 x3 +1 x18 +1 x21 +1 x28 +1 x36 +1 x38 +1 x46 +1 x47 +1 x48 +1 x50 +1 x51 +1 x53 +1 x54 +1 x65
  +1 x70 +1 x84 +1 x94 +1 x108 +1 x109 +1 x119 +1 x132 +1 x152 +1 x165 +1 x177 +1 x179 +1 x180 +1 x191
  +1 x197 +1 x199 >= +1
 c4: +1 x2 +1 x7 +1 x21 +1 x23 +1 x38 +1 x61 +1 x63 +1 x69 +1 x72 +1 x76 +1 x77 +1 x82 +1 x87 +1 x91 +1 x93
  +1 x106 +1 x115 +1 x131 +1 x137 +1 x141 +1 x154 +1 x155 +1 x160 +1 x161 +1 x162 +1 x163 +1 x174 +1 x175
  >= +1
 c5: +1 x0 +1 x6 +1 x9 +1 x14 +1 x19 +1 x35 +1 x36 +1 x48 +1 x52 +1 x55 +1 x68 +1 x79 +1 x81 +1 x91 +1 x104
  +1 x122 +1 x143 +1 x144 +1 x153 +1 x157 +1 x167 +1 x172 +1 x179 +1 x187 +1 x189 +1 x190 +1 x198 >= +1
 c6: +1 x2 +1 x8 +1 x9 +1 x11 +1 x12 +1 x24 +1 x32 +1 x35 +1 x36 +1 x40 +1 x60 +1 x62 +1 x67 +1 x83 +1 x84
  +1 x87 +1 x89 +1 x93 +1 x102 +1 x103 +1 x114 +1 x115 +1 x122 +1 x139 +1 x142 +1 x144 +1 x175 +1 x176
  +1 x180 +1 x192 +1 x198 +1 x199 >= +1
 c7: +1 x0 +1 x11 +1 x12 +1 x13 +1 x29 +1 x41 +1 x43 +1 x46 +1 x53 +1 x70 +1 x74 +1 x76 +1 x79 +1 x88
  +1 x95 +1 x104 +1 x114 +1 x116 +1 x126 +1 x130 +1 x136 +1 x138 +1 x139 +1 x149 +1 x150 +1 x159 +1 x181
  +1 x187 +1 x191 +1 x194 +1 x198 >= +1
 c8: +1 x2 +1 x10 +1 x11 +1 x13 +1 x14 +1 x15 +1 x23 +1 x28 +1 x29 +1 x32 +1 x34 +1 x44 +1 x52 +1 x60
  +1 x67 +1 x69 +1 x79 +1 x80 +1 x97 +1 x99 +1 x100 +1 x134 +1 x136 +1 x141 +1 x147 +1 x148 +1 x155 +1 x161
  +1 x180 +1 x185 +1 x191 +1 x193 +1 x196 +1 x199 >= +1
 c9: +1 x0 +1 x8 +1 x11 +1 x15 +1 x18 +1 x20 +1 x22 +1 x24 +1 x26 +1 x27 +1 x42 +1 x43 +1 x48 +1 x57 +1 x59
  +1 x68 +1 x70 +1 x77 +1 x80 +1 x94 +1 x99 +1 x111 +1 x113 +1 x120 +1 x126 +1 x131 +1 x132 +1 x135 +1 x144
  +1 x147 +1 x155 +1 x157 +1 x166 +1 x170 +1 x173 +1 x175 +1 x189 +1 x195 +1 x199 >= +1
 c10: +1 x2 +1 x9 +1 x10 +1 x17 +1 x38 +1 x42 +1 x47 +1 x51 +1 x58 +1 x63 +1 x64 +1 x70 +1 x77 +1 x85
  +1 x88 +1 x102 +1 x106 +1 x108 +1 x111 +1 x113 +1 x134 +1 x143 +1 x149 +1 x153 +1 x158 +1 x164 +1 x197
  >= +1
 c11: +1 x5 +1 x14 +1 x22 +1 x31 +1 x32 +1 x65 +1 x85 +1 x91 +1 x95 +1 x96 +1 x99 +1 x105 +1 x108 +1 x119
  +1 x125 +1 x129 +1 x130 +1 x139 +1 x146 +1 x149 +1 x160 +1 x161 +1 x174 +1 x183 +1 x187 +1 x192 +1 x198
  >= +1
 c12: +1 x3 +1 x11 +1 x13 +1 x14 +1 x45 +1 x50 +1 x51 +1 x53 +1 x58 +1 x59 +1 x62 +1 x70 +1 x76 +1 x78
  +1 x84 +1 x89 +1 x90 +1 x97 +1 x100 +1 x102 +1 x103 +1 x104 +1 x127 +1 x128 +1 x130 +1 x133 +1 x146
  +1 x153 +1 x156 +1 x158 +1 x167 +1 x173 +1 x176 +1 x178 +1 x187 +1 x190 +1 x194 +1 x198 >= +1
 c13: +1 x3 +1 x6 +1 x15 +1 x29 +1 x36 +1 x37 +1 x38 +1 x39 +1 x44 +1 x63 +1 x91 +1 x108 +1 x118 +1 x121
  +1 x126 +1 x136 +1 x141 +1 x143 +1 x147 +1 x152 +1 x153 +1 x155 +1 x157 +1 x161 +1 x168 +1 x178 +1 x188
  >= +1
 c14: +1 x2 +1 x19 +1 x21 +1 x30 +1 x31 +1 x42 +1 x55 +1 x57 +1 x63 +1 x88 +1 x113 +1 x114 +1 x116 +1 x123
  +1 x128 +1 x135 +1 x146 +1 x148 +1 x150 +1 x152 +1 x156 +1 x170 +1 x174 +1 x189 +1 x196 >= +1
 c15: +1 x3 +1 x27 +1 x37 +1 x46 +1 x54 +1 x58 +1 x60 +1 x61 +1 x68 +1 x77 +1 x88 +1 x89 +1 x93 +1 x95
  +1 x102 +1 x105 +1 x113 +1 x114 +1 x116 +1 x118 +1 x120 +1 x122 +1 x130 +1 x131 +1 x136 +1 x140 +1 x152
  +1 x166 +1 x169 +1 x172 +1 x186 >= +1
 c16: +1 x4 +1 x5 +1 x9 +1 x11 +1 x13 +1 x15 +1 x21 +1 x23 +1 x25 +1 x38 +1 x49 +1 x51 +1 x54 +1 x66 +1 x67
  +1 x76 +1 x101 +1 x109 +1 x121 +1 x125 +1 x130 +1 x131 +1 x137 +1 x144 +1 x155 +1 x177 +1 x188 >= +1
 c17: +1 x4 +1 x7 +1 x9 +1 x15 +1 x19 +1 x29 +1 x50 +1 x55 +1 x61 +1 x73 +1 x79 +1 x101 +1 x102 +1 x105
  +1 x117 +1 x118 +1 x124 +1 x129 +1 x132 +1 x135 +1 x138 +1 x141 +1 x150 +1 x155 +1 x166 +1 x177 +1 x183
  +1 x193 +1 x199 >= +1
 c18: +1 x2 +1 x8 +1 x25 +1 x37 +1 x39 +1 x40 +1 x44 +1 x54 +1 x60 +1 x61 +1 x65 +1 x66 +1 x77 +1 x86
  +1 x108 +1 x113 +1 x116 +1 x120 +1 x122 +1 x126 +1 x129 +1 x134 +1 x135 +1 x140 +1 x147 +1 x164 +1 x191
  +1 x197 +1 x198 >= +1
 c19: +1 x5 +1 x7 +1 x13 +1 x20 +1 x58 +1 x66 +1 x85 +1 x105 +1 x111 +1 x114 +1 x132 +1 x133 +1 x137 +1 x139
  +1 x145 +1 x162 +1 x173 +1 x175 +1 x176 +1 x184 +1 x186 +1 x196 >= +1
 c20: +1 x5 +1 x15 +1 x21 +1 x30 +1 x35 +1 x42 +1 x50 +1 x60 +1 x75 +1 x81 +1 x82 +1 x106 +1 x129 +1 x143
  +1 x154 +1 x159 +1 x163 +1 x165 +1 x169 +1 x174 +1 x177 +1 x181 +1 x183 +1 x194 +1 x196 >= +1
 c21: +1 x3 +1 x9 +1 x22 +1 x25 +1 x29 +1 x30 +1 x32 +1 x36 +1 x39 +1 x41 +1 x42 +1 x44 +1 x45 +1 x57
  +1 x64 +1 x69 +1 x72 +1 x77 +1 x93 +1 x96 +1 x103 +1 x107 +1 x108 +1 x111 +1 x116 +1 x117 +1 x124 +1 x129
  +1 x140 +1 x147 +1 x152 +1 x158 +1 x166 +1 x170 +1 x179 +1 x197 +1 x198 >= +1
 c22: +1 x2 +1 x14 +1 x22 +1 x26 +1 x47 +1 x55 +1 x60 +1 x65 +1 x66 +1 x67 +1 x76 +1 x77 +1 x81 +1 x82
  +1 x85 +1 x89 +1 x96 +1 x105 +1 x108 +1 x128 +1 x130 +1 x131 +1 x147 +1 x163 +1 x166 +1 x167 +1 x175
  +1 x178 +1 x180 +1 x181 +1 x184 +1 x192 +1 x194 >= +1
 c23: +1 x0 +1 x6 +1 x8 +1 x16 +1 x28 +1 x35 +1 x40 +1 x47 +1 x49 +1 x52 +1 x54 +1 x82 +1 x83 +1 x87 +1 x99
  +1 x106 +1 x108 +1 x111 +1 x115 +1 x132 +1 x140 +1 x141 +1 x144 +1 x155 +1 x159 +1 x162 +1 x177 +1 x184
  >= +1
 c24: +1 x1 +1 x7 +1 x8 +1 x14 +1 x30 +1 x36 +1 x37 +1 x47 +1 x56 +1 x58 +1 x59 +1 x74 +1 x78 +1 x82 +1 x84
  +1 x108 +1 x111 +1 x115 +1 x129 +1 x135 +1 x138 +1 x145 +1 x158 +1 x171 +1 x178 +1 x179 +1 x184 +1 x191
  +1 x194 >= +1
 c25: +1 x4 +1 x6 +1 x23 +1 x24 +1 x29 +1 x42 +1 x54 +1 x56 +1 x62 +1 x66 +1 x76 +1 x83 +1 x101 +1 x137
  +1 x144 +1 x152 +1 x166 +1 x174 +1 x180 +1 x189 +1 x191 >= +1
 c26: +1 x1 +1 x13 +1 x23 +1 x24 +1 x32 +1 x33 +1 x36 +1 x49 +1 x52 +1 x74 +1 x77 +1 x81 +1 x84 +1 x94
  +1 x98 +1 x107 +1 x108 +1 x112 +1 x113 +1 x114 +1 x117 +1 x118 +1 x121 +1 x137 +1 x153 +1 x158 +1 x160
  +1 x167 +1 x168 +1 x169 +1 x173 +1 x175 +1 x182 +1 x191 +1 x196 >= +1
 c27: +1 x4 +1 x30 +1 x35 +1 x36 +1 x40 +1 x41 +1 x49 +1 x58 +1 x60 +1 x65 +1 x66 +1 x71 +1 x73 +1 x79
  +1 x84 +1 x95 +1 x114 +1 x123 +1 x124 +1 x126 +1 x129 +1 x134 +1 x146 +1 x155 +1 x157 +1 x164 +1 x171
  +1 x177 +1 x187 +1 x190 +1 x191 >= +1
 c28: +1 x3 +1 x6 +1 x7 +1 x8 +1 x19 +1 x28 +1 x32 +1 x33 +1 x42 +1 x47 +1 x60 +1 x70 +1 x77 +1 x86 +1 x96
  +1 x99 +1 x103 +1 x112 +1 x114 +1 x115 +1 x117 +1 x131 +1 x148 +1 x149 +1 x152 +1 x162 +1 x166 +1 x168
  +1 x181 +1 x183 +1 x188 +1 x193 +1 x199 >= +1
 c29: +1 x0 +1 x11 +1 x27 +1 x28 +1 x31 +1 x32 +1 x39 +1 x47 +1 x49 +1 x50 +1 x59 +1 x60 +1 x73 +1 x76
  +1 x78 +1 x85 +1 x87 +1 x105 +1 x109 +1 x116 +1 x129 +1 x134 +1 x150 +1 x175 +1 x177 +1 x182 >= +1
 c30: +1 x5 +1 x23 +1 x29 +1 x41 +1 x46 +1 x48 +1 x60 +1 x62 +1 x92 +1 x96 +1 x103 +1 x105 +1 x114 +1 x118
  +1 x132 +1 x135 +1 x139 +1 x143 +1 x144 +1 x153 +1 x156 +1 x162 +1 x178 +1 x193 +1 x194 +1 x197 +1 x199
  >= +1
 c31: +1 x3 +1 x9 +1 x22 +1 x25 +1 x65 +1 x69 +1 x72 +1 x74 +1 x79 +1 x83 +1 x85 +1 x89 +1 x92 +1 x100
  +1 x121 +1 x122 +1 x139 +1 x142 +1 x146 +1 x151 +1 x167 +1 x172 +1 x183 +1 x186 +1 x198 +1 x199 >= +1
 c32: +1 x4 +1 x8 +1 x10 +1 x14 +1 x22 +1 x24 +1 x31 +1 x37 +1 x46 +1 x48 +1 x50 +1 x58 +1 x61 +1 x64
  +1 x76 +1 x92 +1 x96 +1 x112 +1 x125 +1 x130 +1 x139 +1 x147 +1 x166 +1 x167 +1 x170 +1 x175 +1 x179
  +1 x183 +1 x198 >= +1
 c33: +1 x4 +1 x16 +1 x18 +1 x34 +1 x35 +1 x50 +1 x51 +1 x52 +1 x66 +1 x83 +1 x87 +1 x94 +1 x101 +1 x107
  +1 x113 +1 x123 +1 x136 +1 x139 +1 x144 +1 x150 +1 x156 +1 x164 +1 x166 +1 x168 +1 x169 +1 x170 +1 x179
  +1 x182 >= +1
 c34: +1 x0 +1 x33 +1 x35 +1 x44 +1 x61 +1 x66 +1 x69 +1 x72 +1 x73 +1 x79 +1 x88 +1 x91 +1 x108 +1 x109
  +1 x113 +1 x144 +1 x156 +1 x159 +1 x164 +1 x165 +1 x167 +1 x174 +1 x181 +1 x184 >= +1
 c35: +1 x1 +1 x17 +1 x19 +1 x30 +1 x39 +1 x42 +1 x44 +1 x52 +1 x54 +1 x55 +1 x61 +1 x64 +1 x67 +1 x78
  +1 x92 +1 x95 +1 x109 +1 x110 +1 x115 +1 x120 +1 x123 +1 x128 +1 x147 +1 x153 +1 x165 +1 x171 +1 x172
  +1 x175 +1 x179 +1 x185 +1 x189 +1 x193 +1 x194 >= +1
 c36: +1 x2 +1 x6 +1 x8 +1 x13 +1 x18 +1 x26 +1 x37 +1 x47 +1 x50 +1 x58 +1 x68 +1 x69 +1 x75 +1 x89 +1 x104
  +1 x108 +1 x111 +1 x118 +1 x120 +1 x128 +1 x150 +1 x151 +1 x157 +1 x161 +1 x170 +1 x186 +1 x188 +1 x199
  >= +1
 c37: +1 x3 +1 x7 +1 x13 +1 x24 +1 x28 +1 x32 +1 x38 +1 x58 +1 x59 +1 x61 +1 x74 +1 x81 +1 x82 +1 x100
  +1 x102 +1 x103 +1 x109 +1 x116 +1 x120 +1 x122 +1 x140 +1 x150 +1 x163 +1 x172 +1 x180 +1 x181 +1 x190
  +1 x191 +1 x195 +1 x199 >= +1
 c38: +1 x2 +1 x7 +1 x15 +1 x17 +1 x26 +1 x43 +1 x48 +1 x58 +1 x63 +1 x71 +1 x93 +1 x97 +1 x109 +1 x110
  +1 x118 +1 x124 +1 x128 +1 x129 +1 x132 +1 x137 +1 x139 +1 x149 +1 x153 +1 x155 +1 x159 +1 x161 +1 x163
  +1 x177 +1 x181 +1 x186 +1 x194 +1 x196 >= +1
 c39: +1 x0 +1 x6 +1 x15 +1 x17 +1 x20 +1 x22 +1 x23 +1 x24 +1 x30 +1 x36 +1 x43 +1 x45 +1 x75 +1 x82
  +1 x88 +1 x91 +1 x94 +1 x98 +1 x100 +1 x103 +1 x116 +1 x117 +1 x118 +1 x140 +1 x141 +1 x142 +1 x144
  +1 x146 +1 x148 +1 x150 +1 x157 +1 x161 +1 x180 +1 x183 +1 x184 +1 x189 +1 x195 >= +1
 c40: +1 x3 +1 x9 +1 x12 +1 x20 +1 x22 +1 x34 +1 x45 +1 x53 +1 x58 +1 x71 +1 x72 +1 x74 +1 x75 +1 x83
  +1 x92 +1 x119 +1 x123 +1 x128 +1 x136 +1 x137 +1 x143 +1 x154 +1 x155 +1 x156 +1 x166 +1 x175 +1 x182
  +1 x186 +1 x189 +1 x194 +1 x197 >= +1
 c41: +1 x0 +1 x10 +1 x13 +1 x26 +1 x30 +1 x31 +1 x48 +1 x50 +1 x58 +1 x60 +1 x69 +1 x78 +1 x85 +1 x86
  +1 x89 +1 x91 +1 x104 +1 x105 +1 x117 +1 x119 +1 x133 +1 x144 +1 x147 +1 x171 +1 x181 +1 x195 +1 x199
  >= +1
 c42: +1 x3 +1 x13 +1 x17 +1 x40 +1 x43 +1 x56 +1 x62 +1 x65 +1 x72 +1 x79 +1 x82 +1 x85 +1 x87 +1 x93
  +1 x108 +1 x112 +1 x114 +1 x118 +1 x119 +1 x123 +1 x130 +1 x132 +1 x151 +1 x181 +1 x182 +1 x183 +1 x185
  +1 x190 +1 x194 >= +1
 c43: +1 x4 +1 x10 +1 x12 +1 x18 +1 x20 +1 x29 +1 x35 +1 x39 +1 x41 +1 x42 +1 x45 +1 x46 +1 x50 +1 x51
  +1 x60 +1 x65 +1 x66 +1 x69 +1 x75 +1 x81 +1 x83 +1 x89 +1 x121 +1 x133 +1 x138 +1 x144 +1 x152 +1 x158
  +1 x162 +1 x167 +1 x168 +1 x183 +1 x194 +1 x195 +1 x197 +1 x199 >= +1
 c44: +1 x3 +1 x8 +1 x19 +1 x27 +1 x41 +1 x47 +1 x49 +1 x63 +1 x65 +1 x74 +1 x80 +1 x96 +1 x97 +1 x98
  +1 x104 +1 x118 +1 x128 +1 x135 +1 x140 +1 x141 +1 x142 +1 x154 +1 x158 +1 x161 +1 x172 +1 x174 +1 x175
  +1 x176 +1 x186 +1 x190 +1 x197 +1 x198 >= +1
 c45: +1 x4 +1 x19 +1 x22 +1 x24 +1 x25 +1 x27 +1 x39 +1 x47 +1 x62 +1 x68 +1 x69 +1 x75 +1 x83 +1 x90
  +1 x92 +1 x94 +1 x96 +1 x100 +1 x103 +1 x113 +1 x120 +1 x121 +1 x127 +1 x131 +1 x132 +1 x137 +1 x139
  +1 x146 +1 x147 +1 x150 +1 x152 +1 x162 +1 x172 +1 x173 +1 x174 +1 x183 +1 x191 +1 x196 +1 x197 +1 x199
  >= +1
 c46: +1 x5 +1 x6 +1 x9 +1 x16 +1 x33 +1 x40 +1 x44 +1 x59 +1 x70 +1 x76 +1 x103 +1 x106 +1 x109 +1 x111
  +1 x119 +1 x122 +1 x139 +1 x142 +1 x147 +1 x155 +1 x183 +1 x188 +1 x190 +1 x195 >= +1
 c47: +1 x5 +1 x19 +1 x23 +1 x33 +1 x34 +1 x39 +1 x49 +1 x53 +1 x67 +1 x72 +1 x78 +1 x89 +1 x97 +1 x98
  +1 x114 +1 x125 +1 x126 +1 x135 +1 x142 +1 x146 +1 x159 +1 x199 >= +1
 c48: +1 x4 +1 x19 +1 x20 +1 x21 +1 x32 +1 x43 +1 x50 +1 x52 +1 x53 +1 x63 +1 x73 +1 x77 +1 x89 +1 x93
  +1 x95 +1 x109 +1 x114 +1 x122 +1 x129 +1 x130 +1 x137 +1 x140 +1 x143 +1 x154 +1 x159 +1 x160 +1 x161
  +1 x176 +1 x180 +1 x185 +1 x189 +1 x193 +1 x194 +1 x199 >= +1
 c49: +1 x1 +1 x7 +1 x8 +1 x13 +1 x20 +1 x31 +1 x34 +1 x44 +1 x54 +1 x69 +1 x70 +1 x72 +1 x83 +1 x107
  +1 x111 +1 x112 +1 x120 +1 x124 +1 x135 +1 x154 +1 x169 +1 x173 +1 x180 +1 x185 >= +1
 c50: +1 x1 +1 x7 +1 x8 +1 x11 +1 x16 +1 x19 +1 x27 +1 x42 +1 x43 +1 x44 +1 x45 +1 x46 +1 x49 +1 x51 +1 x54
  +1 x55 +1 x58 +1 x70 +1 x82 +1 x93 +1 x106 +1 x110 +1 x112 +1 x113 +1 x117 +1 x130 +1 x145 +1 x146 +1 x148
  +1 x154 +1 x156 +1 x161 +1 x169 +1 x170 +1 x172 +1 x176 +1 x177 +1 x196 >= +1
 c51: +1 x0 +1 x17 +1 x22 +1 x24 +1 x34 +1 x45 +1 x53 +1 x56 +1 x60 +1 x70 +1 x82 +1 x83 +1 x95 +1 x102
  +1 x104 +1 x109 +1 x121 +1 x124 +1 x130 +1 x132 +1 x139 +1 x142 +1 x158 +1 x159 +1 x164 +1 x165 +1 x179
  +1 x187 +1 x191 >= +1
 c52: +1 x3 +1 x7 +1 x20 +1 x31 +1 x38 +1 x44 +1 x60 +1 x67 +1 x74 +1 x84 +1 x86 +1 x87 +1 x89 +1 x90
  +1 x100 +1 x111 +1 x114 +1 x116 +1 x127 +1 x138 +1 x148 +1 x153 +1 x154 +1 x155 +1 x175 +1 x184 +1 x186
  +1 x188 +1 x190 +1 x199 >= +1
 c53: +1 x1 +1 x12 +1 x26 +1 x32 +1 x37 +1 x55 +1 x87 +1 x105 +1 x109 +1 x111 +1 x140 +1 x160 +1 x165
  +1 x166 +1 x167 +1 x173 +1 x178 +1 x183 +1 x192 +1 x196 >= +1
 c54: +1 x3 +1 x5 +1 x13 +1 x14 +1 x26 +1 x34 +1 x36 +1 x41 +1 x54 +1 x63 +1 x67 +1 x74 +1 x78 +1 x93
  +1 x109 +1 x112 +1 x137 +1 x138 +1 x148 +1 x150 +1 x151 +1 x152 +1 x163 +1 x193 >= +1
 c55: +1 x5 +1 x13 +1 x22 +1 x23 +1 x24 +1 x30 +1 x35 +1 x38 +1 x40 +1 x51 +1 x61 +1 x70 +1 x75 +1 x76
  +1 x80 +1 x81 +1 x96 +1 x97 +1 x103 +1 x106 +1 x131 +1 x136 +1 x140 +1 x148 +1 x149 +1 x152 +1 x154
  +1 x162 +1 x164 +1 x169 +1 x170 +1 x185 +1 x188 +1 x189 +1 x193 +1 x196 +1 x197 >= +1
 c56: +1 x2 +1 x5 +1 x8 +1 x12 +1 x15 +1 x17 +1 x36 +1 x49 +1 x59 +1 x61 +1 x68 +1 x70 +1 x75 +1 x76 +1 x83
  +1 x92 +1 x95 +1 x99 +1 x118 +1 x121 +1 x124 +1 x128 +1 x129 +1 x133 +1 x137 +1 x141 +1 x142 +1 x150
  +1 x151 +1 x159 +1 x164 +1 x165 +1 x175 +1 x193 +1 x195 >= +1
 c57: +1 x3 +1 x8 +1 x9 +1 x10 +1 x14 +1 x29 +1 x30 +1 x31 +1 x46 +1 x48 +1 x53 +1 x54 +1 x60 +1 x90 +1 x112
  +1 x121 +1 x142 +1 x170 +1 x178 +1 x187 +1 x188 +1 x190 +1 x191 +1 x194 +1 x196 +1 x199 >= +1
 c58: +1 x0 +1 x9 +1 x12 +1 x26 +1 x27 +1 x28 +1 x37 +1 x38 +1 x42 +1 x47 +1 x52 +1 x55 +1 x71 +1 x72
  +1 x75 +1 x76 +1 x80 +1 x86 +1 x94 +1 x95 +1 x100 +1 x115 +1 x118 +1 x131 +1 x137 +1 x156 +1 x161 +1 x162
  +1 x173 +1 x178 +1 x190 +1 x193 >= +1
 c59: +1 x3 +1 x7 +1 x8 +1 x14 +1 x15 +1 x16 +1 x18 +1 x22 +1 x24 +1 x48 +1 x61 +1 x63 +1 x74 +1 x79 +1 x93
  +1 x108 +1 x130 +1 x134 +1 x137 +1 x150 +1 x163 +1 x167 +1 x174 +1 x182 +1 x195 >= +1
 c60: +1 x0 +1 x12 +1 x27 +1 x29 +1 x36 +1 x49 +1 x53 +1 x55 +1 x71 +1 x76 +1 x83 +1 x93 +1 x99 +1 x107
  +1 x115 +1 x117 +1 x124 +1 x129 +1 x146 +1 x162 +1 x174 +1 x175 +1 x194 >= +1
 c61: +1 x0 +1 x7 +1 x10 +1 x24 +1 x27 +1 x31 +1 x37 +1 x44 +1 x48 +1 x62 +1 x77 +1 x82 +1 x96 +1 x97
  +1 x98 +1 x100 +1 x104 +1 x106 +1 x118 +1 x132 +1 x143 +1 x144 +1 x159 +1 x164 +1 x173 +1 x190 >= +1
 c62: +1 x1 +1 x7 +1 x15 +1 x33 +1 x34 +1 x47 +1 x50 +1 x53 +1 x54 +1 x56 +1 x80 +1 x81 +1 x84 +1 x85
  +1 x92 +1 x98 +1 x100 +1 x104 +1 x106 +1 x108 +1 x110 +1 x114 +1 x124 +1 x141 +1 x146 +1 x153 +1 x155
  +1 x156 +1 x159 +1 x164 +1 x174 +1 x176 +1 x185 +1 x194 >= +1
 c63: +1 x1 +1 x8 +1 x14 +1 x16 +1 x26 +1 x49 +1 x56 +1 x65 +1 x66 +1 x69 +1 x70 +1 x73 +1 x83 +1 x109
  +1 x117 +1 x121 +1 x125 +1 x126 +1 x130 +1 x137 +1 x141 +1 x143 +1 x156 +1 x159 +1 x166 +1 x169 +1 x178
  +1 x196 >= +1
 c64: +1 x3 +1 x15 +1 x31 +1 x34 +1 x51 +1 x53 +1 x65 +1 x66 +1 x71 +1 x79 +1 x89 +1 x111 +1 x117 +1 x122
  +1 x127 +1 x130 +1 x135 +1 x137 +1 x142 +1 x143 +1 x146 +1 x157 +1 x172 +1 x174 +1 x175 +1 x177 +1 x184
  +1 x187 +1 x198 >= +1
 c65: +1 x1 +1 x15 +1 x32 +1 x36 +1 x62 +1 x67 +1 x70 +1 x72 +1 x77 +1 x85 +1 x90 +1 x91 +1 x100 +1 x103
  +1 x113 +1 x115 +1 x119 +1 x120 +1 x138 +1 x144 +1 x147 +1 x157 +1 x159 +1 x162 +1 x177 +1 x178 +1 x188
  +1 x189 +1 x194 >= +1
 c66: +1 x4 +1 x14 +1 x24 +1 x27 +1 x34 +1 x42 +1 x44 +1 x68 +1 x87 +1 x91 +1 x106 +1 x110 +1 x120 +1 x125
  +1 x130 +1 x139 +1 x147 +1 x155 +1 x160 +1 x164 +1 x176 +1 x177 +1 x190 +1 x194 >= +1
 c67: +1 x5 +1 x7 +1 x29 +1 x47 +1 x53 +1 x54 +1 x56 +1 x80 +1 x98 +1 x99 +1 x102 +1 x103 +1 x110 +1 x130
  +1 x132 +1 x133 +1 x145 +1 x146 +1 x156 +1 x158 +1 x162 +1 x165 +1 x177 +1 x178 +1 x184 +1 x198 +1 x199
  >= +1
 c68: +1 x0 +1 x6 +1 x11 +1 x22 +1 x25 +1 x33 +1 x38 +1 x41 +1 x54 +1 x60 +1 x62 +1 x65 +1 x68 +1 x96
  +1 x102 +1 x114 +1 x128 +1 x137 +1 x138 +1 x149 +1 x154 +1 x157 +1 x167 +1 x173 +1 x176 +1 x185 +1 x186
  +1 x188 +1 x198 >= +1
 c69: +1 x1 +1 x14 +1 x17 +1 x26 +1 x29 +1 x31 +1 x37 +1 x40 +1 x43 +1 x53 +1 x54 +1 x55 +1 x57 +1 x65
  +1 x77 +1 x92 +1 x93 +1 x103 +1 x107 +1 x110 +1 x117 +1 x125 +1 x129 +1 x130 +1 x138 +1 x140 +1 x142
  +1 x150 +1 x156 +1 x157 +1 x158 +1 x165 +1 x166 +1 x168 +1 x184 +1 x185 +1 x190 +1 x194 +1 x195 >= +1
 c70: +1 x4 +1 x6 +1 x9 +1 x29 +1 x38 +1 x42 +1 x44 +1 x47 +1 x54 +1 x68 +1 x69 +1 x72 +1 x78 +1 x94 +1 x99
  +1 x105 +1 x108 +1 x121 +1 x127 +1 x136 +1 x139 +1 x144 +1 x156 +1 x158 +1 x160 +1 x165 +1 x177 +1 x182
  +1 x188 +1 x190 +1 x195 +1 x197 >= +1
 c71: +1 x2 +1 x17 +1 x20 +1 x28 +1 x31 +1 x34 +1 x36 +1 x41 +1 x51 +1 x67 +1 x96 +1 x119 +1 x132 +1 x154
  +1 x156 +1 x164 +1 x167 +1 x170 +1 x177 +1 x186 >= +1
 c72: +1 x3 +1 x19 +1 x24 +1 x28 +1 x34 +1 x38 +1 x44 +1 x46 +1 x50 +1 x52 +1 x58 +1 x59 +1 x60 +1 x82
  +1 x87 +1 x89 +1 x94 +1 x99 +1 x100 +1 x117 +1 x124 +1 x125 +1 x129 +1 x130 +1 x131 +1 x149 +1 x152
  +1 x154 +1 x179 +1 x182 >= +1
 c73: +1 x4 +1 x8 +1 x16 +1 x22 +1 x23 +1 x26 +1 x40 +1 x51 +1 x53 +1 x65 +1 x71 +1 x75 +1 x78 +1 x79
  +1 x86 +1 x93 +1 x94 +1 x97 +1 x102 +1 x112 +1 x113 +1 x119 +1 x121 +1 x123 +1 x135 +1 x141 +1 x151
  +1 x160 +1 x165 +1 x167 +1 x170 +1 x185 +1 x190 +1 x198 >= +1
 c74: +1 x3 +1 x6 +1 x16 +1 x18 +1 x20 +1 x22 +1 x23 +1 x45 +1 x46 +1 x47 +1 x48 +1 x63 +1 x73 +1 x77
  +1 x79 +1 x87 +1 x95 +1 x104 +1 x110 +1 x115 +1 x118 +1 x121 +1 x122 +1 x138 +1 x144 +1 x148 +1 x151
  +1 x173 +1 x179 +1 x183 +1 x190 >= +1
 c75: +1 x4 +1 x6 +1 x15 +1 x21 +1 x23 +1 x40 +1 x45 +1 x53 +1 x56 +1 x68 +1 x77 +1 x92 +1 x95 +1 x104
  +1 x107 +1 x130 +1 x135 +1 x139 +1 x145 +1 x171 +1 x172 +1 x176 +1 x178 +1 x180 +1 x181 +1 x182 +1 x189
  +1 x196 >= +1
 c76: +1 x2 +1 x20 +1 x23 +1 x29 +1 x34 +1 x40 +1 x45 +1 x48 +1 x57 +1 x60 +1 x73 +1 x84 +1 x86 +1 x87
  +1 x89 +1 x113 +1 x120 +1 x142 +1 x143 +1 x148 +1 x157 +1 x162 +1 x167 +1 x171 +1 x185 +1 x186 +1 x190
  +1 x191 +1 x196 >= +1
 c77: +1 x2 +1 x17 +1 x20 +1 x29 +1 x50 +1 x60 +1 x61 +1 x62 +1 x66 +1 x79 +1 x81 +1 x82 +1 x83 +1 x85
  +1 x96 +1 x97 +1 x100 +1 x102 +1 x111 +1 x115 +1 x119 +1 x120 +1 x137 +1 x147 +1 x154 +1 x156 +1 x158
  +1 x165 +1 x169 +1 x170 +1 x180 +1 x182 +1 x185 +1 x190 +1 x195 +1 x196 +1 x197 >= +1
 c78: +1 x1 +1 x12 +1 x18 +1 x19 +1 x23 +1 x39 +1 x47 +1 x52 +1 x54 +1 x57 +1 x58 +1 x96 +1 x109 +1 x124
  +1 x129 +1 x136 +1 x138 +1 x140 +1 x154 +1 x156 +1 x162 +1 x170 +1 x171 +1 x178 +1 x190 +1 x198 >= +1
 c79: +1 x5 +1 x26 +1 x29 +1 x47 +1 x48 +1 x59 +1 x65 +1 x67 +1 x69 +1 x71 +1 x73 +1 x80 +1 x89 +1 x90
  +1 x96 +1 x101 +1 x106 +1 x115 +1 x117 +1 x135 +1 x140 +1 x156 +1 x165 +1 x172 +1 x174 +1 x175 +1 x177
  +1 x192 >= +1
 c80: +1 x2 +1 x6 +1 x9 +1 x10 +1 x15 +1 x21 +1 x22 +1 x38 +1 x43 +1 x45 +1 x46 +1 x47 +1 x48 +1 x55 +1 x58
  +1 x71 +1 x75 +1 x77 +1 x81 +1 x97 +1 x106 +1 x111 +1 x116 +1 x117 +1 x118 +1 x121 +1 x143 +1 x153 +1 x158
  +1 x161 +1 x162 +1 x174 +1 x186 +1 x187 +1 x191 +1 x193 >= +1
 c81: +1 x3 +1 x19 +1 x21 +1 x23 +1 x36 +1 x56 +1 x64 +1 x80 +1 x81 +1 x86 +1 x90 +1 x96 +1 x107 +1 x112
  +1 x113 +1 x116 +1 x128 +1 x129 +1 x134 +1 x137 +1 x160 +1 x161 +1 x170 +1 x175 +1 x177 +1 x179 +1 x183
  +1 x199 >= +1
 c82: +1 x0 +1 x14 +1 x20 +1 x21 +1 x22 +1 x64 +1 x80 +1 x85 +1 x93 +1 x111 +1 x115 +1 x120 +1 x123 +1 x138
  +1 x145 +1 x146 +1 x152 +1 x164 +1 x170 +1 x172 +1 x173 +1 x175 +1 x179 +1 x185 +1 x186 +1 x191 +1 x192
  +1 x194 +1 x197 >= +1
 c83: +1 x0 +1 x13 +1 x21 +1 x28 +1 x35 +1 x62 +1 x68 +1 x74 +1 x78 +1 x83 +1 x89 +1 x90 +1 x93 +1 x94
  +1 x97 +1 x102 +1 x105 +1 x107 +1 x109 +1 x114 +1 x124 +1 x129 +1 x144 +1 x145 +1 x146 +1 x156 +1 x168
  +1 x169 +1 x172 +1 x177 +1 x189 +1 x190 >= +1
 c84: +1 x3 +1 x8 +1 x14 +1 x21 +1 x22 +1 x33 +1 x35 +1 x38 +1 x42 +1 x43 +1 x47 +1 x73 +1 x76 +1 x80
  +1 x82 +1 x91 +1 x97 +1 x111 +1 x116 +1 x123 +1 x128 +1 x132 +1 x134 +1 x139 +1 x160 +1 x167 +1 x169
  +1 x170 +1 x180 +1 x193 >= +1
 c85: +1 x0 +1 x10 +1 x15 +1 x21 +1 x27 +1 x30 +1 x37 +1 x54 +1 x57 +1 x67 +1 x68 +1 x75 +1 x97 +1 x118
  +1 x119 +1 x127 +1 x155 +1 x164 +1 x165 +1 x170 +1 x173 +1 x174 +1 x188 +1 x191 +1 x194 +1 x195 >= +1
 c86: +1 x5 +1 x6 +1 x25 +1 x29 +1 x46 +1 x48 +1 x68 +1 x77 +1 x87 +1 x92 +1 x93 +1 x114 +1 x128 +1 x140
  +1 x155 +1 x157 +1 x160 +1 x164 +1 x180 +1 x186 +1 x187 +1 x190 >= +1
 c87: +1 x1 +1 x9 +1 x10 +1 x12 +1 x22 +1 x25 +1 x35 +1 x38 +1 x42 +1 x47 +1 x53 +1 x57 +1 x59 +1 x71
  +1 x73 +1 x74 +1 x78 +1 x79 +1 x81 +1 x84 +1 x91 +1 x102 +1 x110 +1 x113 +1 x124 +1 x127 +1 x128 +1 x130
  +1 x131 +1 x138 +1 x145 +1 x150 +1 x153 +1 x155 +1 x157 +1 x158 +1 x177 +1 x179 +1 x184 >= +1
 c88: +1 x3 +1 x10 +1 x17 +1 x18 +1 x19 +1 x20 +1 x27 +1 x35 +1 x40 +1 x47 +1 x50 +1 x55 +1 x70 +1 x75
  +1 x77 +1 x78 +1 x80 +1 x83 +1 x104 +1 x121 +1 x137 +1 x146 +1 x153 +1 x158 +1 x166 +1 x167 +1 x168
  +1 x170 +1 x187 >= +1
 c89: +1 x3 +1 x9 +1 x15 +1 x16 +1 x19 +1 x21 +1 x22 +1 x23 +1 x28 +1 x29 +1 x36 +1 x41 +1 x44 +1 x47
  +1 x50 +1 x56 +1 x60 +1 x65 +1 x101 +1 x105 +1 x106 +1 x117 +1 x119 +1 x122 +1 x134 +1 x135 +1 x140
  +1 x141 +1 x151 +1 x156 +1 x173 +1 x176 +1 x178 +1 x179 +1 x187 +1 x198 >= +1
 c90: +1 x4 +1 x7 +1 x21 +1 x22 +1 x35 +1 x50 +1 x54 +1 x67 +1 x71 +1 x72 +1 x79 +1 x90 +1 x96 +1 x106
  +1 x110 +1 x111 +1 x113 +1 x115 +1 x116 +1 x122 +1 x127 +1 x144 +1 x145 +1 x146 +1 x151 +1 x156 +1 x163
  +1 x166 +1 x170 +1 x172 +1 x179 +1 x183 +1 x185 +1 x189 >= +1
 c91: +1 x4 +1 x10 +1 x14 +1 x15 +1 x16 +1 x29 +1 x33 +1 x36 +1 x40 +1 x42 +1 x48 +1 x54 +1 x71 +1 x73
  +1 x74 +1 x80 +1 x90 +1 x93 +1 x99 +1 x113 +1 x120 +1 x121 +1 x139 +1 x142 +1 x149 +1 x150 +1 x155 +1 x157
  +1 x159 +1 x171 +1 x176 +1 x184 +1 x193 +1 x194 +1 x197 >= +1
 c92: +1 x2 +1 x21 +1 x46 +1 x47 +1 x52 +1 x53 +1 x54 +1 x65 +1 x66 +1 x78 +1 x79 +1 x88 +1 x91 +1 x92
  +1 x97 +1 x102 +1 x104 +1 x110 +1 x112 +1 x113 +1 x116 +1 x118 +1 x121 +1 x127 +1 x131 +1 x132 +1 x133
  +1 x148 +1 x155 +1 x161 +1 x186 +1 x190 +1 x191 +1 x196 +1 x198 >= +1
 c93: +1 x4 +1 x25 +1 x30 +1 x35 +1 x40 +1 x45 +1 x47 +1 x53 +1 x58 +1 x59 +1 x68 +1 x69 +1 x71 +1 x86
  +1 x93 +1 x97 +1 x101 +1 x102 +1 x103 +1 x111 +1 x118 +1 x122 +1 x126 +1 x132 +1 x133 +1 x144 +1 x149
  +1 x150 +1 x158 +1 x160 +1 x181 +1 x186 +1 x187 +1 x194 >= +1
 c94: +1 x0 +1 x5 +1 x9 +1 x12 +1 x13 +1 x17 +1 x20 +1 x24 +1 x27 +1 x28 +1 x30 +1 x31 +1 x32 +1 x41 +1 x64
  +1 x66 +1 x73 +1 x75 +1 x78 +1 x85 +1 x86 +1 x99 +1 x111 +1 x120 +1 x121 +1 x123 +1 x131 +1 x133 +1 x138
  +1 x154 +1 x160 +1 x164 +1 x169 +1 x181 +1 x187 +1 x195 +1 x197 +1 x198 >= +1
 c95: +1 x1 +1 x10 +1 x13 +1 x14 +1 x15 +1 x19 +1 x45 +1 x50 +1 x58 +1 x62 +1 x65 +1 x69 +1 x74 +1 x91
  +1 x92 +1 x94 +1 x100 +1 x105 +1 x112 +1 x120 +1 x123 +1 x125 +1 x131 +1 x146 +1 x157 +1 x169 +1 x178
  +1 x183 +1 x184 +1 x190 >= +1
 c96: +1 x1 +1 x5 +1 x11 +1 x12 +1 x14 +1 x16 +1 x18 +1 x27 +1 x33 +1 x34 +1 x38 +1 x44 +1 x47 +1 x53
  +1 x59 +1 x70 +1 x73 +1 x76 +1 x98 +1 x102 +1 x120 +1 x121 +1 x122 +1 x125 +1 x133 +1 x139 +1 x140 +1 x155
  +1 x160 +1 x165 +1 x172 +1 x187 >= +1
 c97: +1 x2 +1 x9 +1 x12 +1 x17 +1 x19 +1 x20 +1 x24 +1 x30 +1 x35 +1 x38 +1 x40 +1 x53 +1 x64 +1 x66
  +1 x69 +1 x74 +1 x80 +1 x81 +1 x82 +1 x96 +1 x101 +1 x103 +1 x111 +1 x125 +1 x127 +1 x141 +1 x142 +1 x150
  +1 x158 +1 x168 +1 x171 +1 x172 +1 x181 +1 x188 +1 x192 +1 x197 +1 x199 >= +1
 c98: +1 x2 +1 x19 +1 x33 +1 x42 +1 x45 +1 x46 +1 x49 +1 x68 +1 x69 +1 x74 +1 x81 +1 x92 +1 x95 +1 x96
  +1 x97 +1 x101 +1 x102 +1 x108 +1 x109 +1 x120 +1 x133 +1 x134 +1 x136 +1 x140 +1 x146 +1 x151 +1 x152
  +1 x153 +1 x158 +1 x180 +1 x197 +1 x199 >= +1
 c99: +1 x3 +1 x8 +1 x32 +1 x43 +1 x46 +1 x64 +1 x66 +1 x69 +1 x72 +1 x76 +1 x84 +1 x90 +1 x95 +1 x96
  +1 x99 +1 x110 +1 x113 +1 x115 +1 x118 +1 x123 +1 x146 +1 x156 +1 x157 +1 x165 +1 x179 +1 x190 +1 x191
  >= +1
Bounds
 0 <= x0 <= 1
 0 <= x1 <= 1
 0 <= x2 <= 1
 0 <= x3 <= 1
 0 <= x4 <= 1
 0 <= x5 <= 1
 0 <= x6 <= 1
 0 <= x7 <= 1
 0 <= x8 <= 1
 0 <= x9 <= 1
 0 <= x10 <= 1
 0 <= x11 <= 1
 0 <= x12 <= 1
 0 <= x13 <= 1
 0 <= x14 <= 1
 0 <= x15 <= 1
 0 <= x16 <= 1
 0 <= x17 <= 1
 0 <= x18 <= 1
 0 <= x19 <= 1
 0 <= x20 <= 1
 0 <= x21 <= 1
 0 <= x22 <= 1
 0 <= x23 <= 1
 0 <= x24 <= 1
 0 <= x25 <= 1
 0 <= x26 <= 1
 0 <= x27 <= 1
 0 <= x28 <= 1
 0 <= x29 <= 1
 0 <= x30 <= 1
 0 <= x31 <= 1
 0 <= x32 <= 1
 0 <= x33 <= 1
 0 <= x34 <= 1
 0 <= x35 <= 1
 0 <= x36 <= 1
 0 <= x37 <= 1
 0 <= x38 <= 1
 0 <= x39 <= 1
 0 <= x40 <= 1
 0 <= x41 <= 1
 0 <= x42 <= 1
 0 <= x43 <= 1
 0 <= x44 <= 1
 0 <= x45 <= 1
 0 <= x46 <= 1
 0 <= x47 <= 1
 0 <= x48 <= 1
 0 <= x49 <= 1
 0 <= x50 <= 1
 0 <= x51 <= 1
 0 <= x52 <= 1
 0 <= x53 <= 1
 0 <= x54 <= 1
 0 <= x55 <= 1
 0 <= x56 <= 1
 0 <= x57 <= 1
 0 <= x58 <= 1
 0 <= x59 <= 1
 0 <= x60 <= 1
 0 <= x61 <= 1
 0 <= x62 <= 1
 0 <= x63 <= 1
 0 <= x64 <= 1
 0 <= x65 <= 1
 0 <= x66 <= 1
 0 <= x67 <= 1
 0 <= x68 <= 1
 0 <= x69 <= 1
 0 <= x70 <= 1
 0 <= x71 <= 1
 0 <= x72 <= 1
 0 <= x73 <= 1
 0 <= x74 <= 1
 0 <= x75 <= 1
 0 <= x76 <= 1
 0 <= x77 <= 1
 0 <= x78 <= 1
 0 <= x79 <= 1
 0 <= x80 <= 1
 0 <= x81 <= 1
 0 <= x82 <= 1
 0 <= x83 <= 1
 0 <= x84 <= 1
 0 <= x85 <= 1
 0 <= x86 <= 1
 0 <= x87 <= 1
 0 <= x88 <= 1
 0 <= x89 <= 1
 0 <= x90 <= 1
 0 <= x91 <= 1
 0 <= x92 <= 1
 0 <= x93 <= 1
 0 <= x94 <= 1
 0 <= x95 <= 1
 0 <= x96 <= 1
 0 <= x97 <= 1
 0 <= x98 <= 1
 0 <= x99 <= 1
 0 <= x100 <= 1
 0 <= x101 <= 1
 0 <= x102 <= 1
 0 <= x103 <= 1
 0 <= x104 <= 1
 0 <= x105 <= 1
 0 <= x106 <= 1
 0 <= x107 <= 1
 0 <= x108 <= 1
 0 <= x109 <= 1
 0 <= x110 <= 1
 0 <= x111 <= 1
 0 <= x112 <= 1
 0 <= x113 <= 1
 0 <= x114 <= 1
 0 <= x115 <= 1
 0 <= x116 <= 1
 0 <= x117 <= 1
 0 <= x118 <= 1
 0 <= x119 <= 1
 0 <= x120 <= 1
 0 <= x121 <= 1
 0 <= x122 <= 1
 0 <= x123 <= 1
 0 <= x124 <= 1
 0 <= x125 <= 1
 0 <= x126 <= 1
 0 <= x127 <= 1
 0 <= x128 <= 1
 0 <= x129 <= 1
 0 <= x130 <= 1
 0 <= x131 <= 1
 0 <= x132 <= 1
 0 <= x133 <= 1
 0 <= x134 <= 1
 0 <= x135 <= 1
 0 <= x136 <= 1
 0 <= x137 <= 1
 0 <= x138 <= 1
 0 <= x139 <= 1
 0 <= x140 <= 1
 0 <= x141 <= 1
 0 <= x142 <= 1
 0 <= x143 <= 1
 0 <= x144 <= 1
 0 <= x145 <= 1
 0 <= x146 <= 1
 0 <= x147 <= 1
 0 <= x148 <= 1
 0 <= x149 <= 1
 0 <= x150 <= 1
 0 <= x151 <= 1
 0 <= x152 <= 1
 0 <= x153 <= 1
 0 <= x154 <= 1
 0 <= x155 <= 1
 0 <= x156 <= 1
 0 <= x157 <= 1
 0 <= x158 <= 1
 0 <= x159 <= 1
 0 <= x160 <= 1
 0 <= x161 <= 1
 0 <= x162 <= 1
 0 <= x163 <= 1
 0 <= x164 <= 1
 0 <= x165 <= 1
 0 <= x166 <= 1
 0 <= x167 <= 1
 0 <= x168 <= 1
 0 <= x169 <= 1
 0 <= x170 <= 1
 0 <= x171 <= 1
 0 <= x172 <= 1
 0 <= x173 <= 1
 0 <= x174 <= 1
 0 <= x175 <= 1
 0 <= x176 <= 1
 0 <= x177 <= 1
 0 <= x178 <= 1
 0 <= x179 <= 1
 0 <= x180 <= 1
 0 <= x181 <= 1
 0 <= x182 <= 1
 0 <= x183 <= 1
 0 <= x184 <= 1
 0 <= x185 <= 1
 0 <= x186 <= 1
 0 <= x187 <= 1
 0 <= x188 <= 1
 0 <= x189 <= 1
 0 <= x190 <= 1
 0 <= x191 <= 1
 0 <= x192 <= 1
 0 <= x193 <= 1
 0 <= x194 <= 1
 0 <= x195 <= 1
 0 <= x196 <= 1
 0 <= x197 <= 1
 0 <= x198 <= 1
 0 <= x199 <= 1
Binaries
 x0 x1 x2 x3 x4 x5 x6 x7 x8 x9 x10 x11 x12 x13 x14 x15 x16 x17 x18 x19 x20 x21 x22 x23 x24 x25 x26 x27
 x28 x29 x30 x31 x32 x33 x34 x35 x36 x37 x38 x39 x40 x41 x42 x43 x44 x45 x46 x47 x48 x49 x50 x51 x52 x53
 x54 x55 x56 x57 x58 x59 x60 x61 x62 x63 x64 x65 x66 x67 x68 x69 x70 x71 x72 x73 x74 x75 x76 x77 x78 x79
 x80 x81 x82 x83 x84 x85 x86 x87 x88 x89 x90 x91 x92 x93 x94 x95 x96 x97 x98 x99 x100 x101 x102 x103 x104
 x105 x106 x107 x108 x109 x110 x111 x112 x113 x114 x115 x116 x117 x118 x119 x120 x121 x122 x123 x124 x125
 x126 x127 x128 x129 x130 x131 x132 x133 x134 x135 x136 x137 x138 x139 x140 x141 x142 x143 x144 x145 x146
 x147 x148 x149 x150 x151 x152 x153 x154 x155 x156 x157 x158 x159 x160 x161 x162 x163 x164 x165 x166 x167
 x168 x169 x170 x171 x172 x173 x174 x175 x176 x177 x178 x179 x180 x181 x182 x183 x184 x185 x186 x187 x188
 x189 x190 x191 x192 x193 x194 x195 x196 x197 x198 x199
End
